12      4       
9       14      12      15      
0       0       0       0       0       3       2       3       4       
1       0       5       4       0       2       5       6       
4       0       8       0       0       2       5       9       
3       0       6       10      0       2       5       9       
7       6       0       10      3       2       7       11      
10      3       0       0       0       2       8       9       
5       0       1       0       1       1       10      
6       8       2       0       9       1       12      
1       0       0       0       8       1       12      
2       0       7       0       3       1       12      
6       0       4       5       7       1       12      
0       0       0       0       0       0       
